c Generated map
c Size: 8 * 8, weights in range: 1 to 10, walls: False, with ratio 0.0
c dim 2 of 8
c
p sp 64 112
c graph contains 64 nodes and 112 arcs
c
a 1 9 4
a 9 1 4
a 1 2 10
a 2 1 10
a 2 10 1
a 10 2 1
a 2 3 5
a 3 2 5
a 3 11 7
a 11 3 7
a 3 4 1
a 4 3 1
a 4 12 6
a 12 4 6
a 4 5 6
a 5 4 6
a 5 13 6
a 13 5 6
a 5 6 1
a 6 5 1
a 6 14 3
a 14 6 3
a 6 7 10
a 7 6 10
a 7 15 1
a 15 7 1
a 7 8 3
a 8 7 3
a 8 16 1
a 16 8 1
a 9 17 8
a 17 9 8
a 9 10 9
a 10 9 9
a 10 18 1
a 18 10 1
a 10 11 2
a 11 10 2
a 11 19 6
a 19 11 6
a 11 12 10
a 12 11 10
a 12 20 9
a 20 12 9
a 12 13 10
a 13 12 10
a 13 21 8
a 21 13 8
a 13 14 4
a 14 13 4
a 14 22 6
a 22 14 6
a 14 15 9
a 15 14 9
a 15 23 5
a 23 15 5
a 15 16 1
a 16 15 1
a 16 24 1
a 24 16 1
a 17 25 6
a 25 17 6
a 17 18 8
a 18 17 8
a 18 26 7
a 26 18 7
a 18 19 9
a 19 18 9
a 19 27 6
a 27 19 6
a 19 20 8
a 20 19 8
a 20 28 2
a 28 20 2
a 20 21 4
a 21 20 4
a 21 29 5
a 29 21 5
a 21 22 8
a 22 21 8
a 22 30 6
a 30 22 6
a 22 23 1
a 23 22 1
a 23 31 7
a 31 23 7
a 23 24 9
a 24 23 9
a 24 32 5
a 32 24 5
a 25 33 7
a 33 25 7
a 25 26 6
a 26 25 6
a 26 34 6
a 34 26 6
a 26 27 4
a 27 26 4
a 27 35 2
a 35 27 2
a 27 28 3
a 28 27 3
a 28 36 10
a 36 28 10
a 28 29 9
a 29 28 9
a 29 37 6
a 37 29 6
a 29 30 1
a 30 29 1
a 30 38 5
a 38 30 5
a 30 31 4
a 31 30 4
a 31 39 2
a 39 31 2
a 31 32 7
a 32 31 7
a 32 40 10
a 40 32 10
a 33 41 9
a 41 33 9
a 33 34 6
a 34 33 6
a 34 42 4
a 42 34 4
a 34 35 6
a 35 34 6
a 35 43 3
a 43 35 3
a 35 36 1
a 36 35 1
a 36 44 10
a 44 36 10
a 36 37 1
a 37 36 1
a 37 45 8
a 45 37 8
a 37 38 4
a 38 37 4
a 38 46 6
a 46 38 6
a 38 39 7
a 39 38 7
a 39 47 10
a 47 39 10
a 39 40 1
a 40 39 1
a 40 48 9
a 48 40 9
a 41 49 10
a 49 41 10
a 41 42 6
a 42 41 6
a 42 50 1
a 50 42 1
a 42 43 10
a 43 42 10
a 43 51 4
a 51 43 4
a 43 44 6
a 44 43 6
a 44 52 3
a 52 44 3
a 44 45 2
a 45 44 2
a 45 53 1
a 53 45 1
a 45 46 7
a 46 45 7
a 46 54 3
a 54 46 3
a 46 47 7
a 47 46 7
a 47 55 10
a 55 47 10
a 47 48 1
a 48 47 1
a 48 56 8
a 56 48 8
a 49 57 2
a 57 49 2
a 49 50 6
a 50 49 6
a 50 58 5
a 58 50 5
a 50 51 4
a 51 50 4
a 51 59 6
a 59 51 6
a 51 52 10
a 52 51 10
a 52 60 1
a 60 52 1
a 52 53 7
a 53 52 7
a 53 61 10
a 61 53 10
a 53 54 9
a 54 53 9
a 54 62 3
a 62 54 3
a 54 55 2
a 55 54 2
a 55 63 8
a 63 55 8
a 55 56 2
a 56 55 2
a 56 64 3
a 64 56 3
a 57 58 5
a 58 57 5
a 58 59 3
a 59 58 3
a 59 60 5
a 60 59 5
a 60 61 9
a 61 60 9
a 61 62 8
a 62 61 8
a 62 63 8
a 63 62 8
a 63 64 7
a 64 63 7
